c NeuroCodeBench 2.0 CNF formula with verdict Unsat
p cnf 10 16
1 -9 3 10 -7 -2 0
-1 2 -10 0
1 9 8 -4 -6 0
1 -9 -3 -8 0
1 -9 3 -10 0
1 9 8 -4 6 0
-1 2 10 0
1 -9 -3 8 -6 0
-1 -2 -6 0
1 -9 3 10 7 0
1 -9 3 10 -7 2 -6 0
1 -9 3 10 -7 2 6 0
1 9 -8 0
1 9 8 4 0
1 -9 -3 8 6 0
-1 -2 6 0
